JulietBench/Juliet_Based_Patch_Bench/linux/CWE-189-Numeric-Errors/CVE_2016_3135_d157bd761585605b7882935ffb86286919f62ea1/Resultxt_alloc_table_info_SnippetNEQ.smt2
; benchmark generated from python API
(set-info :status unknown)
(declare-fun R () (_ BitVec 32))
(declare-fun rdi () (_ BitVec 64))
(assert
 (let (($x94 (= (_ bv0 32) R)))
 (let ((?x6 ((_ extract 31 0) rdi)))
 (let ((?x10 (bvadd (_ bv64 32) ?x6)))
 (let ((?x12 (concat (_ bv0 32) ?x10)))
 (let (($x66 (bvult ?x12 (_ bv64 64))))
 (let (($x219 (and $x66 $x94)))
 (let (($x96 (= (_ bv1 32) R)))
 (let (($x92 (bvuge ?x10 (_ bv64 32))))
 (let (($x14 (bvule ?x12 (_ bv32768 64))))
 (let (($x165 (and $x14 $x92 $x96)))
 (let (($x62 (bvugt ?x12 (_ bv32768 64))))
 (let (($x162 (and $x62 $x92 $x94)))
 (let (($x218 (or $x162 $x165 $x219)))
 (let (($x144 (not $x218)))
 (let (($x91 (and $x14 $x96)))
 (let (($x95 (and $x62 $x94)))
 (let (($x81 (or $x95 $x91)))
 (let (($x217 (not $x81)))
 (let (($x168 (and $x217 $x144)))
 (let (($x141 (and $x81 $x218)))
 (let (($x216 (or $x141 $x168)))
 (not $x216)))))))))))))))))))))))
(check-sat)
